NAME          ClpDefau  FREE
ROWS
 N  OBJROW
 L  ZMUNI1_PCT
 L  ZMUNI2_PCT
 L  ZMUNI3_PCT
 L  ZMUNI4_PCT
 L  ZMUNI5_PCT
 L  ZMUNI6_PCT
 L  ZMUNI7_PCT
 L  ZMUNI8_PCT
 L  ZMUNI9_PCT
COLUMNS
    QMUNI1 OBJROW 1.          
    QMUNI1 ZMUNI1_PCT 29139.7094  
    QMUNI1 ZMUNI2_PCT 1611.3282   
    QMUNI1 ZMUNI3_PCT 4002.9526   
    QMUNI1 ZMUNI4_PCT 2878.8566   
    QMUNI1 ZMUNI5_PCT  -264.9307  
    QMUNI1 ZMUNI6_PCT  -21.7437   
    QMUNI1 ZMUNI7_PCT 1544.5709   
    QMUNI1 ZMUNI8_PCT 1183.3191   
    QMUNI1 ZMUNI9_PCT 249.0997    
    QMUNI2 OBJROW 1.          
    QMUNI2 ZMUNI1_PCT 1746.9406   
    QMUNI2 ZMUNI2_PCT 34842.3004  
    QMUNI2 ZMUNI3_PCT 2534.6756   
    QMUNI2 ZMUNI4_PCT 2680.2063   
    QMUNI2 ZMUNI5_PCT 75.3403     
    QMUNI2 ZMUNI6_PCT 155.0675    
    QMUNI2 ZMUNI7_PCT 979.9957    
    QMUNI2 ZMUNI8_PCT 1161.9568   
    QMUNI2 ZMUNI9_PCT 922.5845    
    QMUNI3 OBJROW 1.          
    QMUNI3 ZMUNI1_PCT 4271.1258   
    QMUNI3 ZMUNI2_PCT 2722.3587   
    QMUNI3 ZMUNI3_PCT 30903.0533  
    QMUNI3 ZMUNI4_PCT 5166.912    
    QMUNI3 ZMUNI5_PCT 179.4816    
    QMUNI3 ZMUNI6_PCT 347.3282    
    QMUNI3 ZMUNI7_PCT 1815.7959   
    QMUNI3 ZMUNI8_PCT 1690.8646   
    QMUNI3 ZMUNI9_PCT 929.0695    
    QMUNI4 OBJROW 1.          
    QMUNI4 ZMUNI1_PCT 3300.2853   
    QMUNI4 ZMUNI2_PCT 2998.3521   
    QMUNI4 ZMUNI3_PCT 5472.7554   
    QMUNI4 ZMUNI4_PCT 108627.2239 
    QMUNI4 ZMUNI5_PCT 243.9499    
    QMUNI4 ZMUNI6_PCT 341.4154    
    QMUNI4 ZMUNI7_PCT 1330.9479   
    QMUNI4 ZMUNI8_PCT 1260.1852   
    QMUNI4 ZMUNI9_PCT 661.4685    
    QMUNI5 OBJROW 1.          
    QMUNI5 ZMUNI1_PCT 482.3684    
    QMUNI5 ZMUNI2_PCT 365.6388    
    QMUNI5 ZMUNI3_PCT 448.9898    
    QMUNI5 ZMUNI4_PCT 378.2272    
    QMUNI5 ZMUNI5_PCT 36233.1391  
    QMUNI5 ZMUNI6_PCT 2762.0316   
    QMUNI5 ZMUNI7_PCT 519.9432    
    QMUNI5 ZMUNI8_PCT 468.2541    
    QMUNI5 ZMUNI9_PCT 448.2269    
    QMUNI6 OBJROW 1.          
    QMUNI6 ZMUNI1_PCT 238.0371    
    QMUNI6 ZMUNI2_PCT 27.0844     
    QMUNI6 ZMUNI3_PCT 160.0265    
    QMUNI6 ZMUNI4_PCT 119.3046    
    QMUNI6 ZMUNI5_PCT 2485.0846   
    QMUNI6 ZMUNI6_PCT 33022.6898  
    QMUNI6 ZMUNI7_PCT 201.7975    
    QMUNI6 ZMUNI8_PCT 2.0980999999
    QMUNI6 ZMUNI9_PCT  -167.0837  
    QMUNI7 OBJROW 1.          
    QMUNI7 ZMUNI1_PCT 1170.5398   
    QMUNI7 ZMUNI2_PCT 479.126     
    QMUNI7 ZMUNI3_PCT 980.3772    
    QMUNI7 ZMUNI4_PCT 713.253     
    QMUNI7 ZMUNI5_PCT  -90.599    
    QMUNI7 ZMUNI6_PCT 123.5962    
    QMUNI7 ZMUNI7_PCT 31182.8613  
    QMUNI7 ZMUNI8_PCT 1703.6438   
    QMUNI7 ZMUNI9_PCT  -209.2361  
    QMUNI8 OBJROW 1.          
    QMUNI8 ZMUNI1_PCT 1341.2475   
    QMUNI8 ZMUNI2_PCT 1136.2076   
    QMUNI8 ZMUNI3_PCT 1351.738    
    QMUNI8 ZMUNI4_PCT 1089.0007   
    QMUNI8 ZMUNI5_PCT 152.5879    
    QMUNI8 ZMUNI6_PCT 275.8026    
    QMUNI8 ZMUNI7_PCT 2590.1794   
    QMUNI8 ZMUNI8_PCT 29618.0725  
    QMUNI8 ZMUNI9_PCT 1450.7294   
    QMUNI9 OBJROW 1.          
    QMUNI9 ZMUNI1_PCT 512.3138    
    QMUNI9 ZMUNI2_PCT 792.5034    
    QMUNI9 ZMUNI3_PCT 613.0218    
    QMUNI9 ZMUNI4_PCT 541.1148    
    QMUNI9 ZMUNI5_PCT  -111.7706  
    QMUNI9 ZMUNI6_PCT  -53.9779   
    QMUNI9 ZMUNI7_PCT 587.4634    
    QMUNI9 ZMUNI8_PCT 1163.8641   
    QMUNI9 ZMUNI9_PCT 28121.9482  
RHS
    RHS ZMUNI1_PCT 0.1459063374
    RHS ZMUNI2_PCT 0.093373844 
    RHS ZMUNI3_PCT 0.0898546253
    RHS ZMUNI4_PCT  -0.19789609
    RHS ZMUNI5_PCT -0.004866854
    RHS ZMUNI6_PCT 0.1550813115
    RHS ZMUNI7_PCT 0.093486905 
    RHS ZMUNI8_PCT 0.0443663043
    RHS ZMUNI9_PCT -0.058650695
BOUNDS
 LO BOUND QMUNI1 -0.000735534
 UP BOUND QMUNI1      1.1e+10
 LO BOUND QMUNI2 -0.000515955
 UP BOUND QMUNI2      1.1e+10
 LO BOUND QMUNI3 -0.000583778
 UP BOUND QMUNI3      1.1e+10
 LO BOUND QMUNI4 -0.000222329
 UP BOUND QMUNI4      1.1e+10
 LO BOUND QMUNI5 -0.000375265
 UP BOUND QMUNI5      1.1e+10
 LO BOUND QMUNI6 -0.00052605 
 UP BOUND QMUNI6      1.1e+10
 LO BOUND QMUNI7 -0.000212737
 UP BOUND QMUNI7      1.1e+10
 LO BOUND QMUNI8 -0.000320031
 UP BOUND QMUNI8      1.1e+10
 LO BOUND QMUNI9 -0.000329433
 UP BOUND QMUNI9      1.1e+10
ENDATA
